objective value:                                    0
lambda[0,43]*                                       2 	(obj:0)
lambda[1,20]*                                       1 	(obj:0)
lambda[1,23]*                                       4 	(obj:0)
lambda[0,47]*                                       1 	(obj:0)
lambda[1,24]*                                       4 	(obj:0)
lambda[0,48]*                                       7 	(obj:0)
lambda[1,27]*                                       1 	(obj:0)
